/*********************************************
    * Lab01 - FCD_FCR
    * Author: Coso
    * Creation Date: Mar, 2019
    *********************************************/
instance_name = "small_instance_25_FCD_FCR";

d = 2;
r = 3;

SCj = [89 82];
Fj = [4649, 1192];
Dk = [52 28 62];

Cjk = [[68 59 55]
 [55 34 35]];
Fjk = [[348 568 404]
 [660 654 461]];
